\ LP format - for model browsing. Use MPS format to capture full model detail.
Minimize
  C
Subject To
 fistflightcard_1: delta_1,0 + delta_1,1 + delta_1,2 <= 1
 fistflightcard_2: delta_2,0 + delta_2,1 + delta_2,2 <= 1
 firstflighdef_1,0: - x_1,0,1,2 - x_1,0,2,1 + delta_1,0 >= 0
 firstflighdef_1,1: x_1,0,1,2 + x_1,0,2,1 - x_1,1,1,2 - x_1,1,2,1
   + delta_1,1 >= 0
 firstflighdef_1,2: x_1,0,1,2 + x_1,0,2,1 + x_1,1,1,2 + x_1,1,2,1
   - x_1,2,1,2 - x_1,2,2,1 + delta_1,2 >= 0
 firstflighdef_2,0: - x_2,0,1,2 - x_2,0,2,1 + delta_2,0 >= 0
 firstflighdef_2,1: x_2,0,1,2 + x_2,0,2,1 - x_2,1,1,2 - x_2,1,2,1
   + delta_2,1 >= 0
 firstflighdef_2,2: x_2,0,1,2 + x_2,0,2,1 + x_2,1,1,2 + x_2,1,2,1
   - x_2,2,1,2 - x_2,2,2,1 + delta_2,2 >= 0
 trajectorystart_1,0: - x_1,0,2,1 + delta_1,0 <= 0
 trajectorystart_1,1: - x_1,1,2,1 + delta_1,1 <= 0
 trajectorystart_1,2: - x_1,2,2,1 + delta_1,2 <= 0
 trajectorystart_2,0: - x_2,0,1,2 + delta_2,0 <= 0
 trajectorystart_2,1: - x_2,1,1,2 + delta_2,1 <= 0
 trajectorystart_2,2: - x_2,2,1,2 + delta_2,2 <= 0
 flightpredecessor_1,0,1-2: x_1,0,1,2 - delta_1,0 <= 0
 flightpredecessor_1,0,2-1: x_1,0,2,1 - delta_1,0 <= 0
 flightpredecessor_1,1,1-2: - x_1,0,2,1 + x_1,1,1,2 - delta_1,1 <= 0
 flightpredecessor_1,1,2-1: - x_1,0,1,2 + x_1,1,2,1 - delta_1,1 <= 0
 flightpredecessor_1,2,1-2: - x_1,0,2,1 - x_1,1,2,1 + x_1,2,1,2 - delta_1,2
   <= 0
 flightpredecessor_1,2,2-1: - x_1,0,1,2 - x_1,1,1,2 + x_1,2,2,1 - delta_1,2
   <= 0
 flightpredecessor_2,0,1-2: x_2,0,1,2 - delta_2,0 <= 0
 flightpredecessor_2,0,2-1: x_2,0,2,1 - delta_2,0 <= 0
 flightpredecessor_2,1,1-2: - x_2,0,2,1 + x_2,1,1,2 - delta_2,1 <= 0
 flightpredecessor_2,1,2-1: - x_2,0,1,2 + x_2,1,2,1 - delta_2,1 <= 0
 flightpredecessor_2,2,1-2: - x_2,0,2,1 - x_2,1,2,1 + x_2,2,1,2 - delta_2,2
   <= 0
 flightpredecessor_2,2,2-1: - x_2,0,1,2 - x_2,1,1,2 + x_2,2,2,1 - delta_2,2
   <= 0
 droneflow2a_1,1,2: >= 0
 droneflow2b_1,1,2: <= 1
 droneflow2a_1,1,0: - x_1,0,1,2 + x_1,0,2,1 >= 0
 droneflow2b_1,1,0: - x_1,0,1,2 + x_1,0,2,1 <= 1
 droneflow2a_1,1,1: - x_1,0,1,2 + x_1,0,2,1 - x_1,1,1,2 + x_1,1,2,1 >= 0
 droneflow2b_1,1,1: - x_1,0,1,2 + x_1,0,2,1 - x_1,1,1,2 + x_1,1,2,1 <= 1
 droneflow2a_1,2,1: >= -1
 droneflow2b_1,2,1: <= 0
 droneflow2a_1,2,0: x_1,0,1,2 - x_1,0,2,1 >= -1
 droneflow2b_1,2,0: x_1,0,1,2 - x_1,0,2,1 <= 0
 droneflow2a_1,2,1: x_1,0,1,2 - x_1,0,2,1 + x_1,1,1,2 - x_1,1,2,1 >= -1
 droneflow2b_1,2,1: x_1,0,1,2 - x_1,0,2,1 + x_1,1,1,2 - x_1,1,2,1 <= 0
 droneflow2a_2,1,1: >= -1
 droneflow2b_2,1,1: <= 0
 droneflow2a_2,1,0: - x_2,0,1,2 + x_2,0,2,1 >= -1
 droneflow2b_2,1,0: - x_2,0,1,2 + x_2,0,2,1 <= 0
 droneflow2a_2,1,1: - x_2,0,1,2 + x_2,0,2,1 - x_2,1,1,2 + x_2,1,2,1 >= -1
 droneflow2b_2,1,1: - x_2,0,1,2 + x_2,0,2,1 - x_2,1,1,2 + x_2,1,2,1 <= 0
 droneflow2a_2,2,1: >= 0
 droneflow2b_2,2,1: <= 1
 droneflow2a_2,2,0: x_2,0,1,2 - x_2,0,2,1 >= 0
 droneflow2b_2,2,0: x_2,0,1,2 - x_2,0,2,1 <= 1
 droneflow2a_2,2,1: x_2,0,1,2 - x_2,0,2,1 + x_2,1,1,2 - x_2,1,2,1 >= 0
 droneflow2b_2,2,1: x_2,0,1,2 - x_2,0,2,1 + x_2,1,1,2 - x_2,1,2,1 <= 1
 deliveryflow1_1,0: f_1,0,1,2 + f_1,0,2,1 <= 1
 deliveryflow3_1,1: - f_1,0,1,2 + f_1,0,2,1 = -1
 deliveryflow3_1,2: f_1,0,1,2 - f_1,0,2,1 = 1
 ycard2_1,0: y_1,0,1,0 <= 1
 ycard2_1,1: y_1,1,1,0 <= 1
 ycard2_1,2: y_1,2,1,0 <= 1
 ycard2_2,0: y_2,0,1,0 <= 1
 ycard2_2,1: y_2,1,1,0 <= 1
 ycard2_2,2: y_2,2,1,0 <= 1
 ycard1_1,0: y_1,0,1,0 + y_1,1,1,0 + y_1,2,1,0 + y_2,0,1,0 + y_2,1,1,0
   + y_2,2,1,0 <= 1
 linkvars1_1,0: f_1,0,1,2 + f_1,0,2,1 - y_1,0,1,0 - y_1,1,1,0 - y_1,2,1,0
   - y_2,0,1,0 - y_2,1,1,0 - y_2,2,1,0 = 0
 linkvars2_1,0,1,0,1-2: - x_1,0,1,2 + f_1,0,1,2 + y_1,0,1,0 <= 1
 linkvars2_1,0,1,0,2-1: - x_1,0,2,1 + f_1,0,2,1 + y_1,0,1,0 <= 1
 linkvars2_1,1,1,0,1-2: - x_1,1,1,2 + f_1,0,1,2 + y_1,1,1,0 <= 1
 linkvars2_1,1,1,0,2-1: - x_1,1,2,1 + f_1,0,2,1 + y_1,1,1,0 <= 1
 linkvars2_1,2,1,0,1-2: - x_1,2,1,2 + f_1,0,1,2 + y_1,2,1,0 <= 1
 linkvars2_1,2,1,0,2-1: - x_1,2,2,1 + f_1,0,2,1 + y_1,2,1,0 <= 1
 linkvars2_2,0,1,0,1-2: - x_2,0,1,2 + f_1,0,1,2 + y_2,0,1,0 <= 1
 linkvars2_2,0,1,0,2-1: - x_2,0,2,1 + f_1,0,2,1 + y_2,0,1,0 <= 1
 linkvars2_2,1,1,0,1-2: - x_2,1,1,2 + f_1,0,1,2 + y_2,1,1,0 <= 1
 linkvars2_2,1,1,0,2-1: - x_2,1,2,1 + f_1,0,2,1 + y_2,1,1,0 <= 1
 linkvars2_2,2,1,0,1-2: - x_2,2,1,2 + f_1,0,1,2 + y_2,2,1,0 <= 1
 linkvars2_2,2,1,0,2-1: - x_2,2,2,1 + f_1,0,2,1 + y_2,2,1,0 <= 1
 swapnotmove_1,0,: x_1,0,1,2 + x_1,0,2,1 + gamma_1,0 <= 1
 swapnotmove_1,1,: x_1,1,1,2 + x_1,1,2,1 + gamma_1,1 <= 1
 swapnotmove_1,2,: x_1,2,1,2 + x_1,2,2,1 + gamma_1,2 <= 1
 swapnotmove_2,0,: x_2,0,1,2 + x_2,0,2,1 + gamma_2,0 <= 1
 swapnotmove_2,1,: x_2,1,1,2 + x_2,1,2,1 + gamma_2,1 <= 1
 swapnotmove_2,2,: x_2,2,1,2 + x_2,2,2,1 + gamma_2,2 <= 1
 batterysocswap_1,0: - gamma_1,0 + B_1,0 >= 0
 batterysocswap_1,1: - gamma_1,1 + B_1,1 >= 0
 batterysocswap_1,2: - gamma_1,2 + B_1,2 >= 0
 batterysocswap_2,0: - gamma_2,0 + B_2,0 >= 0
 batterysocswap_2,1: - gamma_2,1 + B_2,1 >= 0
 batterysocswap_2,2: - gamma_2,2 + B_2,2 >= 0
 batteryconsumption1_1,0: 0.9541477524431955 x_1,0,1,2
   + 0.9541477524431955 x_1,0,2,1 - 100 gamma_1,0 + B_1,0 <= 1
 batteryconsumption1_1,1: 0.9541477524431955 x_1,1,1,2
   + 0.9541477524431955 x_1,1,2,1 - 100 gamma_1,1 - B_1,0 + B_1,1 <= 0
 batteryconsumption1_1,2: 0.9541477524431955 x_1,2,1,2
   + 0.9541477524431955 x_1,2,2,1 - 100 gamma_1,2 - B_1,1 + B_1,2 <= 0
 batteryconsumption1_2,0: 0.9541477524431955 x_2,0,1,2
   + 0.9541477524431955 x_2,0,2,1 - 100 gamma_2,0 + B_2,0 <= 1
 batteryconsumption1_2,1: 0.9541477524431955 x_2,1,1,2
   + 0.9541477524431955 x_2,1,2,1 - 100 gamma_2,1 - B_2,0 + B_2,1 <= 0
 batteryconsumption1_2,2: 0.9541477524431955 x_2,2,1,2
   + 0.9541477524431955 x_2,2,2,1 - 100 gamma_2,2 - B_2,1 + B_2,2 <= 0
 batteryconsumption2_1,0,1,2: 100 x_1,0,1,2 + 0.9551888565318254 y_1,0,1,0
   - 100 gamma_1,0 + B_1,0 <= 101
 batteryconsumption2_1,0,2,1: 100 x_1,0,2,1 + 0.9551888565318254 y_1,0,1,0
   - 100 gamma_1,0 + B_1,0 <= 101
 batteryconsumption2_1,1,1,2: 100 x_1,1,1,2 + 0.9551888565318254 y_1,1,1,0
   - 100 gamma_1,1 - B_1,0 + B_1,1 <= 100
 batteryconsumption2_1,1,2,1: 100 x_1,1,2,1 + 0.9551888565318254 y_1,1,1,0
   - 100 gamma_1,1 - B_1,0 + B_1,1 <= 100
 batteryconsumption2_1,2,1,2: 100 x_1,2,1,2 + 0.9551888565318254 y_1,2,1,0
   - 100 gamma_1,2 - B_1,1 + B_1,2 <= 100
 batteryconsumption2_1,2,2,1: 100 x_1,2,2,1 + 0.9551888565318254 y_1,2,1,0
   - 100 gamma_1,2 - B_1,1 + B_1,2 <= 100
 batteryconsumption2_2,0,1,2: 100 x_2,0,1,2 + 0.9551888565318254 y_2,0,1,0
   - 100 gamma_2,0 + B_2,0 <= 101
 batteryconsumption2_2,0,2,1: 100 x_2,0,2,1 + 0.9551888565318254 y_2,0,1,0
   - 100 gamma_2,0 + B_2,0 <= 101
 batteryconsumption2_2,1,1,2: 100 x_2,1,1,2 + 0.9551888565318254 y_2,1,1,0
   - 100 gamma_2,1 - B_2,0 + B_2,1 <= 100
 batteryconsumption2_2,1,2,1: 100 x_2,1,2,1 + 0.9551888565318254 y_2,1,1,0
   - 100 gamma_2,1 - B_2,0 + B_2,1 <= 100
 batteryconsumption2_2,2,1,2: 100 x_2,2,1,2 + 0.9551888565318254 y_2,2,1,0
   - 100 gamma_2,2 - B_2,1 + B_2,2 <= 100
 batteryconsumption2_2,2,2,1: 100 x_2,2,2,1 + 0.9551888565318254 y_2,2,1,0
   - 100 gamma_2,2 - B_2,1 + B_2,2 <= 100
 time1_1,0: - C_1,0 + C >= 0
 time1_1,1: - C_1,1 + C >= 0
 time1_1,2: - C_1,2 + C >= 0
 time1_2,0: - C_2,0 + C >= 0
 time1_2,1: - C_2,1 + C >= 0
 time1_2,2: - C_2,2 + C >= 0
 time3_1,0: - 222634.4755700789 x_1,0,1,2 - 222634.4755700789 x_1,0,2,1
   + C_1,0 >= 0
 time3_1,1: - 222634.4755700789 x_1,1,1,2 - 222634.4755700789 x_1,1,2,1
   - C_1,0 + C_1,1 >= 0
 time3_1,2: - 222634.4755700789 x_1,2,1,2 - 222634.4755700789 x_1,2,2,1
   - C_1,1 + C_1,2 >= 0
 time3_2,0: - 222634.4755700789 x_2,0,1,2 - 222634.4755700789 x_2,0,2,1
   + C_2,0 >= 0
 time3_2,1: - 222634.4755700789 x_2,1,1,2 - 222634.4755700789 x_2,1,2,1
   - C_2,0 + C_2,1 >= 0
 time3_2,2: - 222634.4755700789 x_2,2,1,2 - 222634.4755700789 x_2,2,2,1
   - C_2,1 + C_2,2 >= 0
 time4_1,0: - 60 gamma_1,0 + C_1,0 >= 0
 time4_1,1: - 60 gamma_1,1 - C_1,0 + C_1,1 >= 0
 time4_1,2: - 60 gamma_1,2 - C_1,1 + C_1,2 >= 0
 time4_2,0: - 60 gamma_2,0 + C_2,0 >= 0
 time4_2,1: - 60 gamma_2,1 - C_2,0 + C_2,1 >= 0
 time4_2,2: - 60 gamma_2,2 - C_2,1 + C_2,2 >= 0
 time6a_1,0,1,0: - 28800 y_1,0,1,0 - C_1,0 + CD_1,0 >= -28800
 time6b_1,0,1,0: - 28800 y_1,0,1,0 + C_1,0 - CD_1,0 >= -28800
 time6a_1,1,1,0: - 28800 y_1,1,1,0 - C_1,1 + CD_1,0 >= -28800
 time6b_1,1,1,0: - 28800 y_1,1,1,0 + C_1,1 - CD_1,0 >= -28800
 time6a_1,2,1,0: - 28800 y_1,2,1,0 - C_1,2 + CD_1,0 >= -28800
 time6b_1,2,1,0: - 28800 y_1,2,1,0 + C_1,2 - CD_1,0 >= -28800
 time6a_2,0,1,0: - 28800 y_2,0,1,0 - C_2,0 + CD_1,0 >= -28800
 time6b_2,0,1,0: - 28800 y_2,0,1,0 + C_2,0 - CD_1,0 >= -28800
 time6a_2,1,1,0: - 28800 y_2,1,1,0 - C_2,1 + CD_1,0 >= -28800
 time6b_2,1,1,0: - 28800 y_2,1,1,0 + C_2,1 - CD_1,0 >= -28800
 time6a_2,2,1,0: - 28800 y_2,2,1,0 - C_2,2 + CD_1,0 >= -28800
 time6b_2,2,1,0: - 28800 y_2,2,1,0 + C_2,2 - CD_1,0 >= -28800
Bounds
 B_1,0 <= 1
 B_1,1 <= 1
 B_1,2 <= 1
 B_2,0 <= 1
 B_2,1 <= 1
 B_2,2 <= 1
Binaries
 x_1,0,1,2 x_1,0,2,1 x_1,1,1,2 x_1,1,2,1 x_1,2,1,2 x_1,2,2,1 x_2,0,1,2
 x_2,0,2,1 x_2,1,1,2 x_2,1,2,1 x_2,2,1,2 x_2,2,2,1 delta_1,0 delta_1,1
 delta_1,2 delta_2,0 delta_2,1 delta_2,2 f_1,0,1,2 f_1,0,2,1 y_1,0,1,0
 y_1,1,1,0 y_1,2,1,0 y_2,0,1,0 y_2,1,1,0 y_2,2,1,0 gamma_1,0 gamma_1,1
 gamma_1,2 gamma_2,0 gamma_2,1 gamma_2,2
End
